2384
2281
2281
2281
2281
2281
2281
2281
2281
2281
2281
2236
2236
2236
2236
2236
2236
2236
2236
2236
2236
2236
2236
2236
2236
2236
2236
2236
2236
2236
2236
2236
2236
2236
2236
2236
2236
2236
2236
2236
2236
2236
2236
2236
2236
2236
2188
2188
2188
2188
2188
2188
2188
2188
2188
2188
2188
2188
2188
2188
2188
2188
2188
2188
2188
2180
2180
2180
2180
2180
2180
2180
2180
2180
2180
2180
2180
2180
2180
2180
2180
2180
2180
2180
2180
2180
2180
2180
2180
2180
2180
2180
2180
2180
2180
2180
2180
2180
2180
2180
2180
2180
2180
2180
2180
2180
2180
2180
2180
2180
2180
2180
2180
2180
2180
2180
2180
2180
2180
2180
2180
2180
2180
2180
2180
2180
2180
2180
2180
2180
2180
2180
2180
2180
2180
2180
2180
2180
2180
2180
2180
2180
2180
2180
2180
2180
2180
2180
2180
2180
2180
2180
2180
2180
2180
2180
2180
2180
2180
2180
2180
2180
2180
2180
2180
2180
2180
2180
2180
2180
2180
2180
2180
2180
2180
2180
2180
2180
2180
2180
2180
2180
2180
2180
2180
2180
2180
2180
2180
2180
2180
2180
2180
2180
2180
2180
2180
2180
2180
2180
2180
2180
2180
2180
2180
2180
2180
2180
2180
2180
2180
2180
2180
2180
2180
2180
2180
2180
2180
2180
2180
2180
2180
2180
2180
2180
2180
2180
2180
2180
2180
2180
2180
2180
2180
2180
2180
2180
2180
2180
2180
2180
2180
2180
2180
2180
2180
2180
2180
2180
2180
2180
2180
2180
2180
2180
2180
2180
2180
2180
2180
2180
2180
2180
2180
2180
2180
2180
2180
2180
2180
2180
2180
2180
2180
2180
2180
2180
2180
2180
2180
2180
2129
2129
2129
2129
2129
2129
2129
2129
2129
2129
2129
2129
2129
2129
2129
2129
2129
2129
2129
2129
2129
2129
2129
2129
2129
2129
2129
2129
2129
2129
2129
2129
2129
2129
2129
2129
2129
2129
2129
2129
2129
2129
2129
2129
2129
2129
2129
2129
2129
2129
2129
2129
2129
2129
2129
2129
2129
2129
2129
2129
2129
2129
2129
2129
2129
2129
2129
2129
2129
2129
2129
2129
2129
2129
2129
2129
2129
2129
2129
2129
2129
2129
2129
2129
2129
2129
2129
2129
2129
2129
2129
2129
2129
2129
2129
2129
2129
2129
2129
2129
2129
2129
2129
2129
2129
2129
2129
2129
2129
2129
2129
2129
2129
2129
2129
2129
2129
2129
2129
2129
2129
2129
2129
2129
2129
2129
2129
2129
2129
2129
2129
2129
2129
2129
2129
2129
2129
2129
2129
2129
2129
2129
2129
2129
2129
2129
2129
2129
2129
2129
2129
2129
2129
2129
2129
2129
2129
2129
2129
2129
2129
2129
2129
2129
2129
2129
2129
2129
2129
2129
2129
2129
2129
2129
2129
2129
2129
2129
2129
2129
2129
2129
2129
2129
2129
2129
2129
2129
2129
2129
2129
2129
2129
2129
2129
2129
2129
2129
2129
2129
2129
2129
2129
2129
2129
2129
2129
2129
2129
2129
2129
2129
2129
2129
2129
2129
2129
2129
2129
2129
2129
2129
2129
2129
2129
2129
2129
2129
2129
2129
2129
2129
2129
2129
2129
2129
2129
2129
2129
2129
2129
2129
2129
2129
2129
2129
2129
2129
2129
2129
2129
2129
2129
2129
2129
2129
2129
2129
2129
2129
2129
2129
2129
2129
2129
2129
2129
2129
2129
2129
2129
2129
2129
2129
2129
2129
2129
2129
2129
2129
2129
2129
2129
2129
2129
2129
2129
2129
2129
2129
2129
2129
2129
2129
2129
2129
2129
2129
2129
2129
2129
2129
2129
2129
2129
2129
2129
2129
2129
2129
2129
2129
2129
2129
2129
2129
2129
2129
2129
2129
2129
2129
2129
2129
2129
2129
2129
2129
2129
2129
2129
2129
2129
2129
2129
2129
2129
2129
2129
2129
2129
2129
2129
2129
2129
2129
2129
2129
2129
2129
2129
2129
2129
2129
2129
2129
2129
2129
2129
2129
2129
2129
2129
2129
2129
2129
2129
2129
2129
2129
2129
2129
2129
2129
2129
2129
2129
2129
2129
2129
2129
2129
2129
2129
2129
2129
2129
2129
2129
2129
2129
2129
2129
2129
2129
2129
2129
2129
2129
2129
2129
2129
2129
2129
2129
2129
2129
2129
2129
2129
2129
2129
2129
2129
2129
2129
2129
2129
2129
2129
2129
2129
2129
2129
2129
2129
2129
2129
2129
2129
2129
2129
2129
2129
2129
2129
2129
2129
2129
2129
2129
2129
2129
2129
2129
2129
2129
2129
2129
2129
2129
2129
2129
2129
2129
2129
2129
2129
2129
2129
2129
2129
2129
2129
2129
2129
2129
2129
2129
2129
2129
2129
2129
2129
2129
2129
2129
2129
2129
2129
2129
2129
2129
2129
2129
2129
2129
2129
2129
2129
2129
2129
2129
2129
2129
2129
2129
2129
2129
2129
2129
2129
2129
2129
2129
2129
2129
2129
2129
2129
2129
2129
2129
2129
2129
2129
2129
2129
2129
2129
2129
2129
2129
2129
2129
2129
2129
2129
2129
2129
2129
2129
2129
2129
2129
2129
2129
2129
2129
2129
2129
2129
2129
2129
2129
2129
2129
2129
2129
2129
2129
2129
2129
2129
2129
2129
2129
2129
2129
2129
2129
2129
2129
2129
2129
2129
2129
2129
2129
2129
2129
2129
2129
2129
2129
2129
2129
2129
2129
2129
2129
2129
2129
2129
2129
2129
2129
2129
2129
2129
2129
2129
2129
2129
2129
2129
2129
2129
2129
2129
2129
2129
2129
2129
2129
2129
2129
2129
2129
2129
2129
2129
2129
2129
2129
2129
2129
2129
2129
2129
2129
2129
2129
2129
2129
2129
2129
2129
2129
2129
2129
2129
2129
2129
2129
2129
2129
2129
2129
2129
2129
2129
2129
2129
2129
2129
2129
2129
2129
2129
2129
2129
2129
2129
2129
2129
2129
2129
2129
2129
2129
2129
2129
2129
2129
2129
2129
2129
2129
2129
2129
2129
2129
2129
2129
2129
2129
2129
2129
2129
2129
2129
2129
2129
2129
2129
2129
2129
2129
2129
2129
2129
2129
2129
2129
2129
2129
2129
2129
2129
2129
2129
2129
2129
2129
2129
2129
2129
2129
2129
2129
2129
2129
2129
2129
2129
2129
2129
2129
2129
2129
2129
2129
2129
2129
2129
2129
2129
2129
2129
2129
2129
2129
2129
2129
2129
2129
2129
2129
2129
2129
2129
2129
2129
2129
2129
2129
2129
2129
2129
2129
2129
2129
2129
2129
2129
2129
2129
2129
2129
2129
2129
2129
2129
2129
2129
2129
2129
2129
2129
2129
2129
2129
2129
2129
2129
2129
2129
2129
2129
2129
2129
2129
2129
2129
2129
2129
2129
2129
2129
2129
2129
2129
2129
2129
2129
2129
2129
2129
2129
2129
2129
2129
2129
2129
2129
2129
2129
2129
2129
2129
2129
2129
2129
2129
2129
2129
2129
2129
2129
2129
2129
2129
2129
2129
2129
2129
2129
2129
2129
2129
2129
2129
2129
2129
2129
2129
2129
2129
2129
2129
2129
2129
2129
2129
2129
2129
2129
2129
2129
2129
2129
2129
2129
2129
2129
2129
2129
2129
2129
2129
2129
2129
2129
2129
2129
2129
2129
2129
2129
2129
2129
2129
2129
2129
2129
2129
2129
2129
2129
2129
2129
2129
2129
2129
2129
2129
2129
2129
2129
2129
2129
2129
2129
2129
2129
2129
2129
2129
2129
2129
2129
2129
2129
2129
2129
2129
2129
2129
2129
2129
2129
2129
2129
2129
2129
2129
2129
2129
2129
2129
2129
2129
2129
2129
2129
2129
2129
2129
2129
2129
2129
2129
2129
2129
2129
2129
2129
2129
2129
2129
2129
2129
2129
2129
2129
2129
2129
2129
2129
2129
2129
2129
2129
2129
2129
2129
2129
2129
2129
2129
2129
2129
2129
2129
2129
2129
2129
2129
2129
2129
2129
2129
2129
2129
2129
2129
2129
2129
2129
2129
2129
2129
2129
2129
2129
2129
2129
2129
2129
2129
2129
2129
2129
2129
2129
2129
2129
2129
2129
2129
2129
2129
2129
2129
2129
2129
2129
2129
2129
2129
2129
2129
2129
2129
2129
2129
2129
2129
2129
2129
2129
2129
2129
2129
2129
2129
2129
2129
2129
2129
2129
2129
2129
2129
2129
2129
2129
2129
2129
2129
2129
2129
2129
2129
2129
2129
2129
2129
2129
2129
2129
2129
2129
2129
2129
2129
2129
2129
2129
2129
2129
2129
2129
2129
2129
2129
2129
2129
2129
2129
2129
2129
2129
2129
2129
2129
2129
2129
2129
2129
2129
2129
2129
2129
2129
2129
2129
2129
2129
2129
2129
2129
2129
2129
2129
2129
2129
2129
2129
2129
2129
2129
2129
2129
2129
2129
2129
2129
2129
2129
2129
2129
2129
2129
2129
2129
2129
2129
2129
2129
2129
2129
2129
2129
2129
2129
2129
2129
2129
2129
2129
2129
2129
2129
2129
2129
2129
2129
2129
2129
2129
2129
2129
2129
2129
2129
2129
2129
2129
2129
2129
2129
2129
2129
2129
2129
2129
2129
2129
2129
2129
2129
2129
2129
2129
2129
2129
2129
2129
2129
2129
2129
2129
2129
2129
2129
2129
2129
2129
2129
2129
2129
2129
2129
2129
2129
2129
2129
2129
2129
2129
2129
2129
2129
2129
2129
2129
2129
2129
2129
2129
2129
2129
2129
2129
2129
2129
2129
2129
2129
2129
2129
2129
2129
2129
2129
2129
2129
2129
2129
2129
2129
2129
2129
2129
2129
2129
2129
2129
2129
2129
2129
2129
2129
2129
2129
2129
2129
2129
2129
2129
2129
2129
2129
2129
2129
2129
2129
2129
2129
2129
2129
2129
2129
2129
2129
2129
2129
2129
2129
2129
2129
2129
2129
2129
2129
2129
2129
2129
2129
2129
2129
2129
2129
2129
2129
2129
2129
2129
2129
2129
2129
2129
2129
2129
2129
2129
2129
2129
2129
2129
2129
2129
2129
2129
2129
2129
2129
2129
2129
2129
2129
2129
2129
2129
2129
2129
2129
2129
2129
2129
2129
2129
2129
2129
2129
2129
2129
2129
2129
2129
2129
2129
2129
2129
2129
2129
2129
2129
2129
2129
2129
2129
2129
2129
2129
2129
2129
2129
2129
2129
2129
2129
2129
2129
2129
2129
2129
2129
2129
2129
2129
2129
2129
2129
2129
2129
2129
2129
2129
2129
2129
2129
2111
2111
2111
2111
2111
2111
2111
2111
2111
2111
2111
2111
2111
2111
2111
2111
2111
2111
2111
2111
2111
2111
2111
2111
2111
2111
2111
2111
2111
2111
2111
2111
2111
2111
2111
2111
2111
2111
2111
2111
2111
2111
2111
2111
2111
2111
2111
2111
2111
2111
2111
2111
2111
2111
2111
2111
2111
2111
2111
2111
2111
2111
2111
2111
2111
2111
2111
2111
2111
2111
2111
2111
2111
2111
2111
2111
2111
2111
2111
2111
2111
2111
2111
2111
2111
2111
2111
2111
2111
2111
2111
2111
2111
2111
2111
2111
2111
2111
2111
2111
2111
2111
2111
2111
2111
2111
2111
2111
2111
2111
2111
2111
2111
2111
2111
2111
2111
2111
2111
2111
2111
2111
2111
2111
2111
2111
2111
2111
2111
2111
2111
2111
2111
2111
2111
2111
2111
2111
2111
2111
2111
2111
2111
2111
2111
2111
2111
2111
2111
2111
2111
2111
2111
2111
2111
2111
2111
2111
2111
2111
2111
2111
2111
2111
2111
2111
2111
2111
2111
2111
2111
2111
2111
2103
2103
2103
2103
2103
2103
2103
2103
2103
2103
2103
2103
2103
2103
2103
2103
2103
2103
2103
2103
2103
2103
2103
2103
2103
2103
2103
2103
2103
2103
2103
2103
2103
2103
2103
2103
2103
2103
2103
2103
2103
2103
2103
2103
2103
2103
2103
2103
2103
2103
2103
2103
2103
2103
2103
2103
2103
2103
2103
2103
2103
2103
2103
2103
2103
2103
2103
2103
2103
2103
2103
2103
2103
2103
2103
2103
2103
2103
2103
2103
2103
2103
2103
2103
2103
2103
2103
2103
2103
2103
2103
2103
2103
2103
2103
2103
2103
2103
2103
2103
2103
2103
2103
2103
2103
2103
2103
2103
2103
2103
2103
2103
2103
2103
2103
2103
2103
2103
2103
2103
2103
2103
2103
2103
2103
2103
2103
2103
2103
2103
2103
2103
2103
2103
2103
2103
2103
2103
2103
2103
2103
2103
2103
2103
2103
2103
2103
2103
2103
2103
2103
2103
2103
2103
2103
2103
2103
2103
2103
2103
2103
2103
2103
2103
2103
2103
2103
2103
2103
2103
2103
2103
2103
2103
2103
2103
2103
2103
2103
2103
